p cnf 10 50
2 -7 1 0
-7 8 1 0
-8 6 -2 0
2 7 -3 0
8 -1 -5 0
5 -8 7 0
2 9 -5 0
-8 10 1 0
-2 8 -6 0
6 -7 -4 0
-3 9 -6 0
10 1 -4 0
9 8 5 0
-5 2 9 0
-2 10 6 0
-5 -4 3 0
10 -5 4 0
-4 -9 -2 0
10 2 1 0
-8 6 10 0
-6 3 -5 0
4 -6 -2 0
-1 9 -4 0
1 8 5 0
7 -1 -2 0
-8 7 -2 0
6 -9 3 0
6 4 -2 0
-7 -9 1 0
-9 6 -4 0
-6 9 -5 0
-10 4 5 0
10 7 -8 0
10 -2 -7 0
-10 -6 3 0
5 -4 1 0
8 -6 7 0
-10 1 -7 0
4 3 5 0
-4 -2 -6 0
-7 -5 -2 0
5 -7 -9 0
10 -8 -6 0
-10 8 -2 0
-3 -10 2 0
4 10 3 0
-1 -10 2 0
7 5 -3 0
10 -1 -6 0
2 -7 6 0
